Br3Cd1Cs1   [CUB,CUB,cP5] (STD_PRIM doi:
   1.00000000000000     
     5.4872473071754655    0.0000000000000000    0.0000000000000000
     0.0000000000000000    5.4872473071754655    0.0000000000000000
     0.0000000000000000    0.0000000000000000    5.4872473071754655
   Br   Cd   Cs
     3     1     1
Direct
  0.0000000000000000  0.5000000000000000  0.5000000000000000
  0.5000000000000000  0.0000000000000000  0.5000000000000000
  0.5000000000000000  0.5000000000000000  0.0000000000000000
  0.5000000000000000  0.5000000000000000  0.5000000000000000
  0.0000000000000000  0.0000000000000000  0.0000000000000000
 
  0.00000000E+00  0.00000000E+00  0.00000000E+00
  0.00000000E+00  0.00000000E+00  0.00000000E+00
  0.00000000E+00  0.00000000E+00  0.00000000E+00
  0.00000000E+00  0.00000000E+00  0.00000000E+00
  0.00000000E+00  0.00000000E+00  0.00000000E+00
