SYSTEM=Br3CaCs
ISTART=0
ICHARG=2
ENCUT=650

ISMEAR=0
SIGMA=0.01
EDIFF=1E-6
NELMIN=5
#LCALCEPS=.TRUE.  # Static dielectric tensor, Born effective charges, and piezoelectric constants for DFT, HSE06, etc.
LEPSILON=.TRUE.  # Static dielectric tensor, Born effective charges, and piezoelectric constants for standard DFT.
LPEAD=.TRUE.     # Derivative of cell-periodic part of wave function w.r.t. Bloch vector, use with LEPSILON=.TRUE. or LOPTICS=.TRUE.
IBRION=8
#ISPIN=2
PREC=Accurate

GGA=PS
IALGO=38
LREAL=.FALSE.
LWAVE=.FALSE.
LCHARG=.FALSE.
ADDGRID=.TRUE.
#NPAR=4
NELM=100
